(set-logic CHC_LIA)

(synth-fun INV3 ((x_0 Int) (x_1 Int) (x_2 Int) (x_3 Int) (x_4 Int) (x_5 Int) (x_6 Int) (x_7 Int)) Bool)

(synth-fun INV4 ((x_0 Int) (x_1 Int) (x_2 Int) (x_3 Int) (x_4 Int) (x_5 Int) (x_6 Int) (x_7 Int)) Bool)

(synth-fun INV1 ((x_0 Int) (x_1 Int) (x_2 Int) (x_3 Int) (x_4 Int) (x_5 Int) (x_6 Int) (x_7 Int)) Bool)

(synth-fun INV2 ((x_0 Int) (x_1 Int) (x_2 Int) (x_3 Int) (x_4 Int) (x_5 Int) (x_6 Int) (x_7 Int)) Bool)

(constraint (forall ((I Int) (E Int) (J Int) (F Int) (A Int) (B Int) (D Int) (C Int) (G Int) (H Int)) (let ((a!1 (not (>= (+ (- 1 G) (- 1)) 0)))) (let ((a!2 (and (= (+ I 1) E) (= (+ J 2) F) (not (>= A B)) (>= (+ (- D I) (- 1)) 0) (INV3 A B C D I J G H) (>= (+ (- 1 H) (- 1)) 0) a!1 (= G H)))) (=> a!2 (INV3 A B C D E F G H))))))
(constraint (forall ((I Int) (B Int) (J Int) (C Int) (K Int) (E Int) (L Int) (F Int) (A Int) (D Int) (G Int) (H Int)) (let ((a!1 (not (>= (+ (- 1 G) (- 1)) 0)))) (let ((a!2 (and (= (+ I 1) B) (= (+ J 2) C) (= (+ K 1) E) (= (+ L 2) F) (>= A I) (>= (+ (- D K) (- 1)) 0) (INV3 A I J D K L G H) (>= (+ (- 1 H) (- 1)) 0) a!1 (= G H)))) (=> a!2 (INV3 A B C D E F G H))))))
(constraint (forall ((I Int) (B Int) (J Int) (C Int) (A Int) (D Int) (E Int) (F Int) (G Int) (H Int)) (let ((a!1 (not (>= (+ (- D E) (- 1)) 0))) (a!2 (not (>= (+ (- 1 G) (- 1)) 0)))) (let ((a!3 (and (= (+ I 1) B) (= (+ J 2) C) (>= A I) a!1 (INV3 A I J D E F G H) (>= (+ (- 1 H) (- 1)) 0) a!2 (= G H)))) (=> a!3 (INV3 A B C D E F G H))))))
(constraint (forall ((A Int) (B Int) (C Int) (D Int) (E Int) (F Int) (G Int) (H Int)) (let ((a!1 (not (>= (+ (- E F) (- 1)) 0))) (a!2 (not (>= (+ (- 1 G) (- 1)) 0)))) (let ((a!3 (and (not (= A B)) (not (>= C D)) a!1 (INV3 C D A E F B G H) (>= (+ (- 1 H) (- 1)) 0) a!2 (= G H)))) (=> a!3 false)))))
(constraint (forall ((B Int) (C Int) (D Int) (E Int) (F Int) (G Int) (A Int)) (let ((a!1 (not (>= (+ (- 1 A) (- 1)) 0)))) (let ((a!2 (and (= (* (- 1) B) (- 1)) (= (* (- 1) C) 0) (= (* (- 1) D) (- 1)) (= (* (- 1) E) (- 1)) (= (* (- 1) F) (- 2)) (>= (+ (- 1 G) (- 1)) 0) a!1 (= A G)))) (=> a!2 (INV3 A B C D E F A G))))))
(constraint (forall ((I Int) (E Int) (J Int) (F Int) (A Int) (B Int) (D Int) (C Int) (G Int) (H Int)) (let ((a!1 (not (>= (+ (- 1 H) (- 1)) 0))) (a!2 (not (>= (+ (- 1 G) (- 1)) 0)))) (let ((a!3 (and (= (+ I 1) E) (= (+ J 2) F) (not (>= A B)) (>= (+ (- D I) (- 1)) 0) (INV4 A B C D I J G H) a!1 a!2 (= G H)))) (=> a!3 (INV4 A B C D E F G H))))))
(constraint (forall ((I Int) (B Int) (J Int) (C Int) (K Int) (E Int) (L Int) (F Int) (A Int) (D Int) (G Int) (H Int)) (let ((a!1 (not (>= (+ (- 1 H) (- 1)) 0))) (a!2 (not (>= (+ (- 1 G) (- 1)) 0)))) (let ((a!3 (and (= (+ I 1) B) (= (+ J 2) C) (= (+ K 1) E) (= (+ L 2) F) (>= A I) (>= (+ (- D K) (- 1)) 0) (INV4 A I J D K L G H) a!1 a!2 (= G H)))) (=> a!3 (INV4 A B C D E F G H))))))
(constraint (forall ((I Int) (B Int) (J Int) (C Int) (A Int) (D Int) (E Int) (F Int) (G Int) (H Int)) (let ((a!1 (not (>= (+ (- D E) (- 1)) 0))) (a!2 (not (>= (+ (- 1 H) (- 1)) 0))) (a!3 (not (>= (+ (- 1 G) (- 1)) 0)))) (=> (and (= (+ I 1) B) (= (+ J 2) C) (>= A I) a!1 (INV4 A I J D E F G H) a!2 a!3 (= G H)) (INV4 A B C D E F G H)))))
(constraint (forall ((A Int) (B Int) (C Int) (D Int) (E Int) (F Int) (G Int) (H Int)) (let ((a!1 (not (>= (+ (- E F) (- 1)) 0))) (a!2 (not (>= (+ (- 1 H) (- 1)) 0))) (a!3 (not (>= (+ (- 1 G) (- 1)) 0)))) (=> (and (not (= A B)) (not (>= C D)) a!1 (INV4 C D A E F B G H) a!2 a!3 (= G H)) false))))
(constraint (forall ((B Int) (C Int) (E Int) (F Int) (D Int) (A Int)) (let ((a!1 (not (>= (+ (- 1 D) (- 1)) 0))) (a!2 (not (>= (+ (- 1 A) (- 1)) 0)))) (let ((a!3 (and (= (* (- 1) B) (- 1)) (= (* (- 1) C) 0) (= (* (- 1) E) (- 1)) (= (* (- 1) F) (- 2)) a!1 a!2 (= A D)))) (=> a!3 (INV4 A B C D E F A D))))))
(constraint (forall ((I Int) (E Int) (J Int) (F Int) (A Int) (B Int) (D Int) (C Int) (G Int) (H Int)) (let ((a!1 (and (= (+ I 1) E) (= (+ J 2) F) (not (>= A B)) (>= (+ (- D I) (- 1)) 0) (INV1 A B C D I J G H) (>= (+ (- 1 H) (- 1)) 0) (>= (+ (- 1 G) (- 1)) 0) (= G H)))) (=> a!1 (INV1 A B C D E F G H)))))
(constraint (forall ((I Int) (B Int) (J Int) (C Int) (K Int) (E Int) (L Int) (F Int) (A Int) (D Int) (G Int) (H Int)) (let ((a!1 (and (= (+ I 1) B) (= (+ J 2) C) (= (+ K 1) E) (= (+ L 2) F) (>= A I) (>= (+ (- D K) (- 1)) 0) (INV1 A I J D K L G H) (>= (+ (- 1 H) (- 1)) 0) (>= (+ (- 1 G) (- 1)) 0) (= G H)))) (=> a!1 (INV1 A B C D E F G H)))))
(constraint (forall ((I Int) (B Int) (J Int) (C Int) (A Int) (D Int) (E Int) (F Int) (G Int) (H Int)) (let ((a!1 (not (>= (+ (- D E) (- 1)) 0)))) (let ((a!2 (and (= (+ I 1) B) (= (+ J 2) C) (>= A I) a!1 (INV1 A I J D E F G H) (>= (+ (- 1 H) (- 1)) 0) (>= (+ (- 1 G) (- 1)) 0) (= G H)))) (=> a!2 (INV1 A B C D E F G H))))))
(constraint (forall ((A Int) (B Int) (C Int) (D Int) (E Int) (F Int) (G Int) (H Int)) (let ((a!1 (not (>= (+ (- E F) (- 1)) 0)))) (let ((a!2 (and (not (= A B)) (not (>= C D)) a!1 (INV1 C D A E F B G H) (>= (+ (- 1 H) (- 1)) 0) (>= (+ (- 1 G) (- 1)) 0) (= G H)))) (=> a!2 false)))))
(constraint (forall ((A Int) (B Int) (C Int) (D Int) (E Int) (F Int) (H Int) (G Int)) (let ((a!1 (and (= (* (- 1) A) (- 1)) (= (* (- 1) B) (- 1)) (= (* (- 1) C) 0) (= (* (- 1) D) (- 1)) (= (* (- 1) E) (- 1)) (= (* (- 1) F) (- 2)) (>= (+ (- 1 H) (- 1)) 0) (>= (+ (- 1 G) (- 1)) 0) (= G H)))) (=> a!1 (INV1 A B C D E F G H)))))
(constraint (forall ((I Int) (E Int) (J Int) (F Int) (A Int) (B Int) (D Int) (C Int) (G Int) (H Int)) (let ((a!1 (not (>= (+ (- 1 H) (- 1)) 0)))) (let ((a!2 (and (= (+ I 1) E) (= (+ J 2) F) (not (>= A B)) (>= (+ (- D I) (- 1)) 0) (INV2 A B C D I J G H) a!1 (>= (+ (- 1 G) (- 1)) 0) (= G H)))) (=> a!2 (INV2 A B C D E F G H))))))
(constraint (forall ((I Int) (B Int) (J Int) (C Int) (K Int) (E Int) (L Int) (F Int) (A Int) (D Int) (G Int) (H Int)) (let ((a!1 (not (>= (+ (- 1 H) (- 1)) 0)))) (let ((a!2 (and (= (+ I 1) B) (= (+ J 2) C) (= (+ K 1) E) (= (+ L 2) F) (>= A I) (>= (+ (- D K) (- 1)) 0) (INV2 A I J D K L G H) a!1 (>= (+ (- 1 G) (- 1)) 0) (= G H)))) (=> a!2 (INV2 A B C D E F G H))))))
(constraint (forall ((I Int) (B Int) (J Int) (C Int) (A Int) (D Int) (E Int) (F Int) (G Int) (H Int)) (let ((a!1 (not (>= (+ (- D E) (- 1)) 0))) (a!2 (not (>= (+ (- 1 H) (- 1)) 0)))) (let ((a!3 (and (= (+ I 1) B) (= (+ J 2) C) (>= A I) a!1 (INV2 A I J D E F G H) a!2 (>= (+ (- 1 G) (- 1)) 0) (= G H)))) (=> a!3 (INV2 A B C D E F G H))))))
(constraint (forall ((A Int) (B Int) (C Int) (D Int) (E Int) (F Int) (G Int) (H Int)) (let ((a!1 (not (>= (+ (- E F) (- 1)) 0))) (a!2 (not (>= (+ (- 1 H) (- 1)) 0)))) (let ((a!3 (and (not (= A B)) (not (>= C D)) a!1 (INV2 C D A E F B G H) a!2 (>= (+ (- 1 G) (- 1)) 0) (= G H)))) (=> a!3 false)))))
(constraint (forall ((A Int) (B Int) (C Int) (E Int) (F Int) (D Int) (G Int)) (let ((a!1 (not (>= (+ (- 1 D) (- 1)) 0)))) (let ((a!2 (and (= (* (- 1) A) (- 1)) (= (* (- 1) B) (- 1)) (= (* (- 1) C) 0) (= (* (- 1) E) (- 1)) (= (* (- 1) F) (- 2)) a!1 (>= (+ (- 1 G) (- 1)) 0) (= G D)))) (=> a!2 (INV2 A B C D E F G D))))))

(check-synth)

